6  6  0.0  1   1  0.0  0
1.0d-10  13  0  0.0   
-1.00 -1.00 -1.00 -1.00  -1.00  -1.00 -1.00 0.18 0.18 0.18  0.18 -0.12 -0.12 -1.00 -1.00 -1.00 -1.00 -1.00 -1.00 -1.00
1 2  2 3  4 5  5 6  1 4  2 5  3 6  1 5  2 4  2 6  3 5  1 3  4 6  
 5.0   5.0   5.0   5.0   5.0   5.0   5.0   4.0   4.0   4.0   4.0   4.0   4.0   4.0   4.0   
-4.0  -4.0  -4.0  -4.0  -4.0  -4.0  -4.0  -4.0  -4.0  -4.0  -4.0  -4.0  -4.0  -4.0 
 1    1    1    1    1    1    1    1    1   1   1   1   1   1    1    1
 0.00  0.00  0.00  0.00  0.00  0.00  0.00  0.00  0.00  0.00  0.00  0.00  0.00  0.00  0.00  0.00  
-0.1425  0.1425  -0.1425  0.1425  -0.1425  0.1425     0.1425  0.1425  0.1425  0.1425  0.1425  0.1425

-0.0000  0.0000  -0.0000  0.0000  -0.0000  0.0000     0.1425  0.1425  0.1425  0.1425  0.1425  0.1425

 4.0   4.0   4.0   4.0   4.0   4.0   4.0   4.0   4.0   4.0   4.0   4.0   4.0   4.0   4.0   
10.2  10.2  10.2  10.2  10.2  10.2  10.2  10.2  10.2  10.2  10.2  10.2  10.2  10.2  





 0
 1 3  2 4  3 5  4 6  5 7  6 8  7 9  8 10  9 1  10 2  11 1  12 2
-0.0  -0.0 -0.0 -0.0 -0.0 -0.0 -0.0 -0.0 -0.0 -0.0 -0.0  -0.0 -0.0 -0.0 -0.0 -0.0 -0.0 -0.0 -0.0 -0.0 
-4.0  -4.0  -4.0  -4.0  -4.0  -4.0  -4.0  -4.0  -4.0  -4.0  -4.0  -4.0  -4.0  -4.0 
---------------------------------

 -0.5 -0.5  -0.5 -0.5 -0.5 -0.5 -0.5 -0.5 -0.5 -0.5 -0.5 -0.5 0.0  0.0
      read(1,*) norb,nlctrns,amltplt,min,max,field,ipot
      read(1,*) accu,nbonds,nchrg,vrp
      read(1,*) (trnsfr(i),i=1,nbonds)
      read(1,*) (ibond(1,i),ibond(2,i),i=1,nbonds)
      read(1,*) (uhub(i),i=1,norb)
      read(1,*) (esite(i),i=1,norb)
      read(1,*) (nzocc(i),i=1,norb)

-0.0 -0.0 -0.0 -0.0 -0.0 -0.0 -0.0 -0.0 -0.0 -0.0 -0.0 -0.0 -0.0 -0.0 -0.0 -0.0 -0.0 -0.0 -0.0 -0.0 -0.0 -0.0 -0.0 -0.0 -0.0 -0.0 -0.0 
 3.90  3.90  3.90  3.90  3.90  3.90  3.90  3.90  3.90  3.90  3.90  3.90  3.90  3.90  3.90  3.90  3.90  3.90  3.90  3.90  3.90 

1 2  1 3  2 4  3 4  3 5  4 6  4 7  5 7  6 8  7 8  7 9  8 10  9 10  2 5  6 9  1 6  3 8  5 10  2 9  1 10


-2.40 -2.40 -2.40 -2.40 -2.40 -2.40 -2.40 -2.40 -2.40 -2.40 -2.40 -2.40 -2.40 -2.40 -2.40 -2.40 -2.40  
11.26   11.26  11.26  11.26  11.26  11.26   11.26   11.26   11.26      11.26   

0.00  0.00  0.00  0.00  0.00  0.00  0.00  0.00  0.00  0.00  0.00  -0.21  0.21  0.21 
 0.21  -0.21  0.21  -0.21  0.21  -0.21  0.21  -0.21  0.21  -0.21  0.21  -0.21  0.21  0.21 
-1.00 -1.00 -1.00 -1.00  -1.00  -1.00 -1.00 -1.00 -1.00 -1.00 -1.00 -1.00 
 8.00    8.00   8.00   8.00   8.00   8.00   8.00   8.00   8.00   8.00   8.00   8.00   
 1 3  2 4  3 5  4 6  5 1  6 2  7 9  8 10  9 1

 9  9  0.5  1   1  0.0  0
1.0d-10  12 0  0.0   
-1.0 -1.0 -1.0 -1.0 -1.0 -1.0 -1.0 -1.0 -1.0 -1.0 -1.0 -1.0 -1.0 -1.0 
 1 2  2 3  1 4  2 5  3 6  4 5  5 6  4 7  5 8  6 9  7 8  8 9  
  6.00   6.00   6.00   6.00   6.00   6.00  6.00   6.00   6.00   6.00   6.00   6.00
 0.0  0.0  0.0  0.0  0.0  0.0  0.0  0.0  0.0  0.0  0.0  0.0  0.0  0.0
 1    1    1    1    1    1    1    1    1   1   1   1   1   1    1    1
 0.0  0.0  0.0  0.0  0.0  0.0  0.0  0.0  0.0  0.0  0.0  0.0  0.0  0.0  0.0
 0


